
Gurobi 9.5.1 (linux64) logging started Wed Mar  9 18:00:42 2022

Set parameter LogFile to value "../results/logs/log_2022_03_09_17_57.csv_3_60.log"
Set parameter Method to value 3
Gurobi Optimizer version 9.5.1 build v9.5.1rc2 (linux64)
Thread count: 8 physical cores, 8 logical processors, using up to 8 threads
Optimize a model with 5947 rows, 9882 columns and 44842 nonzeros
Model fingerprint: 0xae3be80d
Variable types: 4941 continuous, 4941 integer (4941 binary)
Coefficient statistics:
  Matrix range     [1e+00, 3e+00]
  Objective range  [1e+00, 1e+00]
  Bounds range     [1e+00, 1e+00]
  RHS range        [1e+00, 6e+01]
Found heuristic solution: objective 231.0000000
Presolve removed 2783 rows and 5534 columns
Presolve time: 0.04s
Presolved: 3164 rows, 4348 columns, 16843 nonzeros
Variable types: 2523 continuous, 1825 integer (1795 binary)
Found heuristic solution: objective 267.0000000

Concurrent LP optimizer: primal simplex, dual simplex, and barrier
Showing barrier log only...

Root barrier log...

Ordering time: 0.00s

Barrier statistics:
 AA' NZ     : 1.450e+04
 Factor NZ  : 4.269e+04 (roughly 3 MB of memory)
 Factor Ops : 6.627e+05 (less than 1 second per iteration)
 Threads    : 1

                  Objective                Residual
Iter       Primal          Dual         Primal    Dual     Compl     Time
   0   1.12062222e+04  1.26872921e+04  4.17e+03 9.44e-01  3.43e+01     0s
   1   5.31482369e+03  1.89823707e+04  1.84e+03 8.88e-15  1.48e+01     0s
   2   1.22528705e+03  1.23395435e+04  1.25e+02 8.88e-15  1.71e+00     0s
   3   1.01422651e+03  3.04638111e+03  1.93e+01 5.77e-15  2.59e-01     0s
   4   1.07735337e+03  1.62327149e+03  3.16e+00 1.07e-14  5.67e-02     0s
   5   1.13636223e+03  1.38238960e+03  1.21e+00 1.24e-14  2.40e-02     0s
   6   1.17413648e+03  1.30229859e+03  4.08e-01 6.22e-15  1.18e-02     0s
   7   1.18893430e+03  1.25580223e+03  2.09e-01 3.55e-15  6.09e-03     0s
   8   1.19950863e+03  1.23378795e+03  9.04e-02 4.12e-15  3.09e-03     0s
   9   1.20186295e+03  1.22492706e+03  6.74e-02 3.11e-15  2.08e-03     0s
  10   1.20300176e+03  1.21758836e+03  5.45e-02 3.55e-15  1.33e-03     0s
  11   1.20839461e+03  1.21392456e+03  3.50e-03 2.15e-15  4.76e-04     0s
  12   1.20889420e+03  1.21272310e+03  5.81e-04 1.88e-15  3.27e-04     0s
  13   1.20901232e+03  1.20913322e+03  4.42e-06 4.31e-15  1.03e-05     0s
  14   1.20903598e+03  1.20903643e+03  0.00e+00 3.23e-15  3.87e-08     0s
  15   1.20903618e+03  1.20903619e+03  0.00e+00 2.72e-15  3.87e-11     0s

Barrier solved model in 15 iterations and 0.09 seconds (0.08 work units)
Optimal objective 1.20903618e+03


Solved with barrier

Root relaxation: objective 1.209036e+03, 547 iterations, 0.06 seconds (0.04 work units)

    Nodes    |    Current Node    |     Objective Bounds      |     Work
 Expl Unexpl |  Obj  Depth IntInf | Incumbent    BestBd   Gap | It/Node Time

     0     0 1209.03618    0 1210  267.00000 1209.03618   353%     -    0s
H    0     0                     279.0000000 1209.03618   333%     -    0s
     0     0  768.18507    0  736  279.00000  768.18507   175%     -    0s
     0     0  734.61841    0  646  279.00000  734.61841   163%     -    0s
     0     0  732.72292    0  638  279.00000  732.72292   163%     -    0s
     0     0  732.61385    0  635  279.00000  732.61385   163%     -    0s
     0     0  650.53723    0  605  279.00000  650.53723   133%     -    0s
     0     0  641.21817    0  535  279.00000  641.21817   130%     -    0s
     0     0  639.40682    0  547  279.00000  639.40682   129%     -    0s
     0     0  639.18691    0  549  279.00000  639.18691   129%     -    0s
H    0     0                     283.0000000  639.18691   126%     -    0s
H    0     0                     286.0000000  639.18691   123%     -    0s
H    0     0                     289.0000000  609.40439   111%     -    0s
     0     0  609.40439    0  504  289.00000  609.40439   111%     -    0s
H    0     0                     290.0000000  600.93858   107%     -    0s
H    0     0                     296.0000000  600.93858   103%     -    0s
     0     0  600.93858    0  566  296.00000  600.93858   103%     -    0s
     0     0  598.99987    0  457  296.00000  598.99987   102%     -    1s
     0     0  598.65454    0  472  296.00000  598.65454   102%     -    1s
H    0     0                     333.0000000  598.65454  79.8%     -    1s
H    0     0                     344.0000000  588.84200  71.2%     -    1s
     0     0  588.84200    0  429  344.00000  588.84200  71.2%     -    1s
     0     0  586.79063    0  439  344.00000  586.79063  70.6%     -    1s
     0     0  586.35066    0  468  344.00000  586.35066  70.5%     -    1s
     0     0  583.20294    0  458  344.00000  583.20294  69.5%     -    1s
     0     0  583.20294    0  458  344.00000  583.20294  69.5%     -    1s
     0     2  583.20294    0  458  344.00000  583.20294  69.5%     -    1s
H   31    40                     346.0000000  580.85334  67.9%   142    1s
H   35    40                     367.0000000  580.85334  58.3%   129    1s
H  127   136                     375.0000000  580.85334  54.9%  71.0    1s
H  532   541                     386.0000005  580.85334  50.5%  46.2    2s
H  539   541                     398.0000000  580.85334  45.9%  45.9    2s
H 1615  1688                     400.0000000  580.85334  45.2%  37.3    3s
H 1632  1688                     405.0000000  580.85334  43.4%  37.0    3s
H 2156  1971                     506.0000000  580.85334  14.8%  36.4    3s
H 2334  2105                     519.0000000  580.85334  11.9%  37.4    4s
H 2588  2196                     521.0000000  580.63498  11.4%  38.4    4s
H 2602  2139                     523.0000000  580.63498  11.0%  38.5    4s
H 2609  1536                     546.0000000  580.63498  6.34%  38.5    5s
  2667  1566  559.07161   19  320  546.00000  559.07161  2.39%  37.7   10s
  2705  1596  558.53217   29  207  546.00000  558.53217  2.30%  46.0   15s
H 2955  1677                     554.0000000  558.09002  0.74%  45.7   17s
H 2958  1600                     555.0000000  558.09002  0.56%  45.7   17s
* 3239  1397              42     556.0000000  557.29813  0.23%  45.2   18s

Cutting planes:
  Gomory: 179
  Lift-and-project: 100
  Implied bound: 12
  MIR: 824
  Flow cover: 861
  RLT: 94
  Relax-and-lift: 44

Explored 3405 nodes (156317 simplex iterations) in 18.38 seconds (21.69 work units)
Thread count was 8 (of 8 available processors)

Solution count 10: 556 555 554 ... 400

Optimal solution found (tolerance 1.00e-04)
Best objective 5.560000000000e+02, best bound 5.560000000000e+02, gap 0.0000%
